
******************************************************************************
This program contains Ipopt, a library for large-scale nonlinear optimization.
 Ipopt is released as open source code under the Eclipse Public License (EPL).
         For more information visit https://github.com/coin-or/Ipopt
******************************************************************************

This is Ipopt version 3.14.19, running with linear solver MUMPS 5.8.1.

Number of nonzeros in equality constraint Jacobian...:     4389
Number of nonzeros in inequality constraint Jacobian.:        0
Number of nonzeros in Lagrangian Hessian.............:     1050

Total number of variables............................:     1287
                     variables with only lower bounds:        0
                variables with lower and upper bounds:      457
                     variables with only upper bounds:        0
Total number of equality constraints.................:     1274
Total number of inequality constraints...............:        0
        inequality constraints with only lower bounds:        0
   inequality constraints with lower and upper bounds:        0
        inequality constraints with only upper bounds:        0

iter    objective    inf_pr   inf_du lg(mu)  ||d||  lg(rg) alpha_du alpha_pr  ls
   0  9.8590916e+00 9.90e+01 1.06e-03  -1.0 0.00e+00    -  0.00e+00 0.00e+00   0
   1  9.8515588e+00 7.85e-01 2.45e+01  -1.0 9.85e+01    -  3.80e-02 1.00e+00h  1
   2  9.8518866e+00 2.36e-02 3.25e-01  -1.0 6.52e-01    -  9.31e-01 1.00e+00h  1
   3  9.8593357e+00 1.95e-01 3.04e+00  -1.0 2.61e+00    -  6.13e-01 1.00e+00f  1
   4  9.8682231e+00 9.06e-02 1.10e+00  -1.0 3.98e+00    -  8.57e-01 7.17e-01f  1
   5  9.8731759e+00 2.75e-01 3.69e-03  -1.0 1.52e+00    -  1.00e+00 1.00e+00f  1
   6  9.8622867e+00 5.96e-01 2.26e-03  -1.7 1.10e+00    -  1.00e+00 1.00e+00h  1
   7  9.8634710e+00 4.75e-02 1.59e-04  -1.7 7.58e-01    -  1.00e+00 1.00e+00h  1
   8  9.8629226e+00 9.11e-02 1.27e-04  -2.5 6.76e-01    -  1.00e+00 1.00e+00h  1
   9  9.8625718e+00 3.79e-04 5.04e-06  -2.5 1.32e-01    -  1.00e+00 1.00e+00h  1
iter    objective    inf_pr   inf_du lg(mu)  ||d||  lg(rg) alpha_du alpha_pr  ls
  10  9.8619522e+00 3.20e-03 1.07e-02  -3.8 2.40e-01    -  8.20e-01 1.00e+00h  1
  11  9.8528185e+00 2.44e-03 3.58e-03  -3.8 3.67e+00    -  4.04e-01 1.00e+00h  1
  12  9.8514087e+00 7.92e-05 1.00e-04  -3.8 7.68e-01    -  1.00e+00 1.00e+00h  1
  13  9.8481013e+00 3.74e-04 5.30e-04  -5.7 1.51e+00    -  7.95e-01 1.00e+00h  1
  14  9.8479604e+00 1.07e-04 1.36e-03  -5.7 1.16e-01    -  1.00e+00 7.16e-01h  1
  15  9.8479173e+00 1.29e-05 6.85e-04  -5.7 4.90e-01    -  9.31e-01 8.81e-01f  1
  16  9.8479173e+00 9.25e-06 1.50e-02  -5.7 2.11e-01    -  7.49e-01 2.80e-01f  2
  17  9.8479140e+00 5.30e-10 6.10e-10  -5.7 3.50e-03    -  1.00e+00 1.00e+00h  1
  18  9.8478979e+00 9.71e-09 1.69e-02  -8.6 1.27e-01    -  8.71e-01 4.46e-01h  1
  19  9.8478968e+00 5.00e-09 5.05e-02  -8.6 1.02e-03    -  1.00e+00 4.89e-01h  1
iter    objective    inf_pr   inf_du lg(mu)  ||d||  lg(rg) alpha_du alpha_pr  ls
  20  9.8478968e+00 3.40e-11 2.95e-14  -8.6 1.52e-05    -  1.00e+00 1.00e+00f  1

Number of Iterations....: 20

                                   (scaled)                 (unscaled)
Objective...............:   9.8478968137352716e+00    9.8478968137352716e+00
Dual infeasibility......:   2.9464928760769560e-14    2.9464928760769560e-14
Constraint violation....:   3.3970160018275246e-11    3.3970160018275246e-11
Variable bound violation:   0.0000000000000000e+00    0.0000000000000000e+00
Complementarity.........:   2.5815551402329218e-09    2.5815551402329218e-09
Overall NLP error.......:   2.5815551402329218e-09    2.5815551402329218e-09


Number of objective function evaluations             = 22
Number of objective gradient evaluations             = 21
Number of equality constraint evaluations            = 22
Number of inequality constraint evaluations          = 0
Number of equality constraint Jacobian evaluations   = 21
Number of inequality constraint Jacobian evaluations = 0
Number of Lagrangian Hessian evaluations             = 20
Total seconds in IPOPT                               = 0.073

EXIT: Optimal Solution Found.
